p cnf 256 1
256 0
w 1 0.38446
w 2 1 0.0208112
w 2 -1 0.710328
w 3 2 0.62485
w 3 -2 0.48351
w 4 3 0.749798
w 4 -3 0.255045
w 5 4 1
w 5 -4 0
w 6 5 1
w 6 -5 0
w 7 6 1
w 7 -6 0
w 8 7 0
w 8 -7 1
w 9 8 0
w 9 -8 1
w 10 9 1
w 10 -9 0
w 11 10 0
w 11 -10 1
w 12 11 1
w 12 -11 0
w 13 12 0.665401
w 13 -12 0.616427
w 14 13 1
w 14 -13 0
w 15 14 0
w 15 -14 1
w 16 15 0.711215
w 16 -15 0.104943
w 17 1 1
w 17 -1 0
w 18 17 2 0.327943
w 18 17 -2 0.449771
w 18 -17 2 0.983492
w 18 -17 -2 0.513817
w 19 18 3 0.161284
w 19 18 -3 0.202959
w 19 -18 3 0.371572
w 19 -18 -3 0.211212
w 20 19 4 0
w 20 19 -4 1
w 20 -19 4 0
w 20 -19 -4 1
w 21 20 5 0
w 21 20 -5 1
w 21 -20 5 1
w 21 -20 -5 0
w 22 21 6 1
w 22 21 -6 0
w 22 -21 6 0
w 22 -21 -6 0
w 23 22 7 0.353895
w 23 22 -7 0.740737
w 23 -22 7 0.98875
w 23 -22 -7 0.93204
w 24 23 8 0.960113
w 24 23 -8 0.259983
w 24 -23 8 0.385233
w 24 -23 -8 0.943605
w 25 24 9 0.296049
w 25 24 -9 0.10489
w 25 -24 9 0.976759
w 25 -24 -9 0.667621
w 26 25 10 0
w 26 25 -10 1
w 26 -25 10 0
w 26 -25 -10 0
w 27 26 11 0
w 27 26 -11 1
w 27 -26 11 0
w 27 -26 -11 0
w 28 27 12 0
w 28 27 -12 1
w 28 -27 12 1
w 28 -27 -12 0
w 29 28 13 1
w 29 28 -13 1
w 29 -28 13 0
w 29 -28 -13 0
w 30 29 14 0
w 30 29 -14 0
w 30 -29 14 1
w 30 -29 -14 1
w 31 30 15 0
w 31 30 -15 1
w 31 -30 15 1
w 31 -30 -15 1
w 32 31 16 0
w 32 31 -16 1
w 32 -31 16 0
w 32 -31 -16 0
w 33 17 1
w 33 -17 0
w 34 33 18 0
w 34 33 -18 0
w 34 -33 18 0
w 34 -33 -18 1
w 35 34 19 0
w 35 34 -19 0
w 35 -34 19 1
w 35 -34 -19 0
w 36 35 20 0.323134
w 36 35 -20 0.348452
w 36 -35 20 0.558829
w 36 -35 -20 0.660145
w 37 36 21 1
w 37 36 -21 0
w 37 -36 21 1
w 37 -36 -21 1
w 38 37 22 0
w 38 37 -22 1
w 38 -37 22 0
w 38 -37 -22 0
w 39 38 23 0
w 39 38 -23 1
w 39 -38 23 0
w 39 -38 -23 0
w 40 39 24 0.194223
w 40 39 -24 0.105237
w 40 -39 24 0.753456
w 40 -39 -24 0.861216
w 41 40 25 1
w 41 40 -25 1
w 41 -40 25 0
w 41 -40 -25 1
w 42 41 26 1
w 42 41 -26 0
w 42 -41 26 0
w 42 -41 -26 0
w 43 42 27 0.653261
w 43 42 -27 0.308409
w 43 -42 27 0.141147
w 43 -42 -27 0.0539431
w 44 43 28 0.114094
w 44 43 -28 0.140538
w 44 -43 28 0.442071
w 44 -43 -28 0.176913
w 45 44 29 1
w 45 44 -29 1
w 45 -44 29 1
w 45 -44 -29 0
w 46 45 30 0
w 46 45 -30 0
w 46 -45 30 0
w 46 -45 -30 1
w 47 46 31 1
w 47 46 -31 0
w 47 -46 31 1
w 47 -46 -31 0
w 48 47 32 0
w 48 47 -32 1
w 48 -47 32 0
w 48 -47 -32 0
w 49 33 1
w 49 -33 0
w 50 49 34 1
w 50 49 -34 0
w 50 -49 34 0
w 50 -49 -34 1
w 51 50 35 1
w 51 50 -35 0
w 51 -50 35 0
w 51 -50 -35 0
w 52 51 36 0
w 52 51 -36 1
w 52 -51 36 0
w 52 -51 -36 0
w 53 52 37 0.0679679
w 53 52 -37 0.779321
w 53 -52 37 0.351371
w 53 -52 -37 0.195783
w 54 53 38 0.932945
w 54 53 -38 0.124701
w 54 -53 38 0.641241
w 54 -53 -38 0.0018656
w 55 54 39 0
w 55 54 -39 1
w 55 -54 39 1
w 55 -54 -39 0
w 56 55 40 0
w 56 55 -40 0
w 56 -55 40 1
w 56 -55 -40 1
w 57 56 41 0.554469
w 57 56 -41 0.92553
w 57 -56 41 0.316039
w 57 -56 -41 0.657036
w 58 57 42 0.880678
w 58 57 -42 0.126359
w 58 -57 42 0.839865
w 58 -57 -42 0.766374
w 59 58 43 1
w 59 58 -43 0
w 59 -58 43 1
w 59 -58 -43 0
w 60 59 44 0
w 60 59 -44 0
w 60 -59 44 0
w 60 -59 -44 1
w 61 60 45 1
w 61 60 -45 0
w 61 -60 45 1
w 61 -60 -45 1
w 62 61 46 0
w 62 61 -46 1
w 62 -61 46 1
w 62 -61 -46 1
w 63 62 47 0
w 63 62 -47 1
w 63 -62 47 1
w 63 -62 -47 1
w 64 63 48 1
w 64 63 -48 0
w 64 -63 48 1
w 64 -63 -48 1
w 65 49 0.702338
w 65 -49 0.0494487
w 66 65 50 0.802264
w 66 65 -50 0.0795742
w 66 -65 50 0.588942
w 66 -65 -50 0.835135
w 67 66 51 1
w 67 66 -51 1
w 67 -66 51 1
w 67 -66 -51 0
w 68 67 52 0
w 68 67 -52 0
w 68 -67 52 1
w 68 -67 -52 0
w 69 68 53 1
w 69 68 -53 1
w 69 -68 53 0
w 69 -68 -53 1
w 70 69 54 1
w 70 69 -54 0
w 70 -69 54 0
w 70 -69 -54 0
w 71 70 55 1
w 71 70 -55 1
w 71 -70 55 1
w 71 -70 -55 0
w 72 71 56 0
w 72 71 -56 0
w 72 -71 56 1
w 72 -71 -56 1
w 73 72 57 1
w 73 72 -57 1
w 73 -72 57 1
w 73 -72 -57 0
w 74 73 58 0
w 74 73 -58 1
w 74 -73 58 1
w 74 -73 -58 1
w 75 74 59 1
w 75 74 -59 0
w 75 -74 59 1
w 75 -74 -59 1
w 76 75 60 1
w 76 75 -60 0
w 76 -75 60 1
w 76 -75 -60 1
w 77 76 61 1
w 77 76 -61 1
w 77 -76 61 0
w 77 -76 -61 1
w 78 77 62 0.627335
w 78 77 -62 0.224163
w 78 -77 62 0.553699
w 78 -77 -62 0.708481
w 79 78 63 0.173214
w 79 78 -63 0.659498
w 79 -78 63 0.217514
w 79 -78 -63 0.816418
w 80 79 64 0
w 80 79 -64 1
w 80 -79 64 0
w 80 -79 -64 1
w 81 65 0
w 81 -65 1
w 82 81 66 1
w 82 81 -66 0
w 82 -81 66 0
w 82 -81 -66 0
w 83 82 67 1
w 83 82 -67 0
w 83 -82 67 1
w 83 -82 -67 0
w 84 83 68 0
w 84 83 -68 0
w 84 -83 68 1
w 84 -83 -68 1
w 85 84 69 0
w 85 84 -69 0
w 85 -84 69 1
w 85 -84 -69 0
w 86 85 70 0.583276
w 86 85 -70 0.754244
w 86 -85 70 0.60464
w 86 -85 -70 0.731835
w 87 86 71 1
w 87 86 -71 0
w 87 -86 71 1
w 87 -86 -71 1
w 88 87 72 1
w 88 87 -72 0
w 88 -87 72 0
w 88 -87 -72 1
w 89 88 73 0
w 89 88 -73 1
w 89 -88 73 1
w 89 -88 -73 1
w 90 89 74 0
w 90 89 -74 1
w 90 -89 74 1
w 90 -89 -74 1
w 91 90 75 1
w 91 90 -75 1
w 91 -90 75 1
w 91 -90 -75 0
w 92 91 76 1
w 92 91 -76 0
w 92 -91 76 1
w 92 -91 -76 1
w 93 92 77 0
w 93 92 -77 1
w 93 -92 77 1
w 93 -92 -77 1
w 94 93 78 0.778383
w 94 93 -78 0.37538
w 94 -93 78 0.243211
w 94 -93 -78 0.770493
w 95 94 79 0
w 95 94 -79 1
w 95 -94 79 0
w 95 -94 -79 1
w 96 95 80 0
w 96 95 -80 0
w 96 -95 80 0
w 96 -95 -80 1
w 97 81 1
w 97 -81 0
w 98 97 82 0
w 98 97 -82 1
w 98 -97 82 1
w 98 -97 -82 1
w 99 98 83 0.46254
w 99 98 -83 0.944416
w 99 -98 83 0.309192
w 99 -98 -83 0.0668175
w 100 99 84 0.968221
w 100 99 -84 0.925977
w 100 -99 84 0.853552
w 100 -99 -84 0.826381
w 101 100 85 1
w 101 100 -85 0
w 101 -100 85 0
w 101 -100 -85 0
w 102 101 86 1
w 102 101 -86 0
w 102 -101 86 0
w 102 -101 -86 0
w 103 102 87 1
w 103 102 -87 1
w 103 -102 87 1
w 103 -102 -87 0
w 104 103 88 1
w 104 103 -88 0
w 104 -103 88 0
w 104 -103 -88 0
w 105 104 89 1
w 105 104 -89 1
w 105 -104 89 0
w 105 -104 -89 1
w 106 105 90 0.0873501
w 106 105 -90 0.485284
w 106 -105 90 0.696424
w 106 -105 -90 0.940902
w 107 106 91 1
w 107 106 -91 0
w 107 -106 91 0
w 107 -106 -91 0
w 108 107 92 1
w 108 107 -92 0
w 108 -107 92 1
w 108 -107 -92 0
w 109 108 93 0.362348
w 109 108 -93 0.949339
w 109 -108 93 0.326831
w 109 -108 -93 0.62364
w 110 109 94 0
w 110 109 -94 0
w 110 -109 94 1
w 110 -109 -94 0
w 111 110 95 0
w 111 110 -95 1
w 111 -110 95 0
w 111 -110 -95 0
w 112 111 96 0
w 112 111 -96 1
w 112 -111 96 0
w 112 -111 -96 1
w 113 97 0
w 113 -97 1
w 114 113 98 1
w 114 113 -98 0
w 114 -113 98 1
w 114 -113 -98 0
w 115 114 99 1
w 115 114 -99 1
w 115 -114 99 0
w 115 -114 -99 1
w 116 115 100 0.437391
w 116 115 -100 0.885515
w 116 -115 100 0.128749
w 116 -115 -100 0.821672
w 117 116 101 1
w 117 116 -101 1
w 117 -116 101 1
w 117 -116 -101 0
w 118 117 102 0.936061
w 118 117 -102 0.297953
w 118 -117 102 0.875492
w 118 -117 -102 0.932609
w 119 118 103 0
w 119 118 -103 1
w 119 -118 103 0
w 119 -118 -103 0
w 120 119 104 0.169589
w 120 119 -104 0.940311
w 120 -119 104 0.958584
w 120 -119 -104 0.518166
w 121 120 105 0
w 121 120 -105 1
w 121 -120 105 1
w 121 -120 -105 1
w 122 121 106 1
w 122 121 -106 0
w 122 -121 106 1
w 122 -121 -106 1
w 123 122 107 0
w 123 122 -107 1
w 123 -122 107 1
w 123 -122 -107 1
w 124 123 108 0.733488
w 124 123 -108 0.852825
w 124 -123 108 0.157707
w 124 -123 -108 0.60898
w 125 124 109 0.411344
w 125 124 -109 0.280344
w 125 -124 109 0.655494
w 125 -124 -109 0.932328
w 126 125 110 1
w 126 125 -110 0
w 126 -125 110 0
w 126 -125 -110 0
w 127 126 111 1
w 127 126 -111 0
w 127 -126 111 1
w 127 -126 -111 0
w 128 127 112 0.717343
w 128 127 -112 0.749991
w 128 -127 112 0.672267
w 128 -127 -112 0.282424
w 129 113 0.182668
w 129 -113 0.172325
w 130 129 114 0.140112
w 130 129 -114 0.0890887
w 130 -129 114 0.799934
w 130 -129 -114 0.8736
w 131 130 115 0.957641
w 131 130 -115 0.48258
w 131 -130 115 0.727348
w 131 -130 -115 0.368985
w 132 131 116 0.382842
w 132 131 -116 0.301313
w 132 -131 116 0.911287
w 132 -131 -116 0.0156792
w 133 132 117 1
w 133 132 -117 1
w 133 -132 117 0
w 133 -132 -117 1
w 134 133 118 1
w 134 133 -118 0
w 134 -133 118 1
w 134 -133 -118 1
w 135 134 119 0.060856
w 135 134 -119 0.86211
w 135 -134 119 0.177774
w 135 -134 -119 0.233181
w 136 135 120 0.317886
w 136 135 -120 0.32227
w 136 -135 120 0.602222
w 136 -135 -120 0.191487
w 137 136 121 1
w 137 136 -121 1
w 137 -136 121 0
w 137 -136 -121 0
w 138 137 122 0
w 138 137 -122 1
w 138 -137 122 0
w 138 -137 -122 0
w 139 138 123 1
w 139 138 -123 1
w 139 -138 123 0
w 139 -138 -123 1
w 140 139 124 0
w 140 139 -124 0
w 140 -139 124 0
w 140 -139 -124 1
w 141 140 125 1
w 141 140 -125 0
w 141 -140 125 1
w 141 -140 -125 0
w 142 141 126 1
w 142 141 -126 1
w 142 -141 126 1
w 142 -141 -126 0
w 143 142 127 0
w 143 142 -127 1
w 143 -142 127 0
w 143 -142 -127 1
w 144 143 128 1
w 144 143 -128 1
w 144 -143 128 0
w 144 -143 -128 1
w 145 129 1
w 145 -129 0
w 146 145 130 0
w 146 145 -130 0
w 146 -145 130 1
w 146 -145 -130 1
w 147 146 131 1
w 147 146 -131 1
w 147 -146 131 1
w 147 -146 -131 0
w 148 147 132 0
w 148 147 -132 1
w 148 -147 132 1
w 148 -147 -132 0
w 149 148 133 0.939397
w 149 148 -133 0.769251
w 149 -148 133 0.10374
w 149 -148 -133 0.316114
w 150 149 134 0
w 150 149 -134 1
w 150 -149 134 0
w 150 -149 -134 0
w 151 150 135 0
w 151 150 -135 0
w 151 -150 135 1
w 151 -150 -135 0
w 152 151 136 1
w 152 151 -136 0
w 152 -151 136 1
w 152 -151 -136 1
w 153 152 137 1
w 153 152 -137 0
w 153 -152 137 1
w 153 -152 -137 1
w 154 153 138 0
w 154 153 -138 1
w 154 -153 138 1
w 154 -153 -138 1
w 155 154 139 0.435624
w 155 154 -139 0.44621
w 155 -154 139 0.666039
w 155 -154 -139 0.539364
w 156 155 140 0.251676
w 156 155 -140 0.658716
w 156 -155 140 0.446685
w 156 -155 -140 0.582547
w 157 156 141 1
w 157 156 -141 0
w 157 -156 141 0
w 157 -156 -141 0
w 158 157 142 0.125458
w 158 157 -142 0.122798
w 158 -157 142 0.984415
w 158 -157 -142 0.628158
w 159 158 143 0
w 159 158 -143 0
w 159 -158 143 1
w 159 -158 -143 1
w 160 159 144 0
w 160 159 -144 1
w 160 -159 144 0
w 160 -159 -144 1
w 161 145 0.953853
w 161 -145 0.730223
w 162 161 146 1
w 162 161 -146 0
w 162 -161 146 1
w 162 -161 -146 1
w 163 162 147 1
w 163 162 -147 1
w 163 -162 147 0
w 163 -162 -147 1
w 164 163 148 0.94057
w 164 163 -148 0.146796
w 164 -163 148 0.887935
w 164 -163 -148 0.0633685
w 165 164 149 1
w 165 164 -149 0
w 165 -164 149 1
w 165 -164 -149 0
w 166 165 150 0.0710626
w 166 165 -150 0.33647
w 166 -165 150 0.522971
w 166 -165 -150 0.542614
w 167 166 151 1
w 167 166 -151 1
w 167 -166 151 1
w 167 -166 -151 0
w 168 167 152 0.967281
w 168 167 -152 0.81738
w 168 -167 152 0.132452
w 168 -167 -152 0.83885
w 169 168 153 0
w 169 168 -153 1
w 169 -168 153 1
w 169 -168 -153 1
w 170 169 154 0
w 170 169 -154 0
w 170 -169 154 1
w 170 -169 -154 0
w 171 170 155 0
w 171 170 -155 0
w 171 -170 155 1
w 171 -170 -155 1
w 172 171 156 0
w 172 171 -156 1
w 172 -171 156 1
w 172 -171 -156 0
w 173 172 157 0.464629
w 173 172 -157 0.861489
w 173 -172 157 0.328019
w 173 -172 -157 0.812017
w 174 173 158 1
w 174 173 -158 0
w 174 -173 158 0
w 174 -173 -158 0
w 175 174 159 0.17206
w 175 174 -159 0.911113
w 175 -174 159 0.876997
w 175 -174 -159 0.445345
w 176 175 160 1
w 176 175 -160 1
w 176 -175 160 0
w 176 -175 -160 1
w 177 161 0.243601
w 177 -161 0.170352
w 178 177 162 1
w 178 177 -162 1
w 178 -177 162 0
w 178 -177 -162 1
w 179 178 163 0.120436
w 179 178 -163 0.50843
w 179 -178 163 0.440699
w 179 -178 -163 0.981924
w 180 179 164 0.252716
w 180 179 -164 0.391206
w 180 -179 164 0.110021
w 180 -179 -164 0.0320143
w 181 180 165 1
w 181 180 -165 1
w 181 -180 165 0
w 181 -180 -165 0
w 182 181 166 1
w 182 181 -166 1
w 182 -181 166 1
w 182 -181 -166 0
w 183 182 167 0.437981
w 183 182 -167 0.11053
w 183 -182 167 0.729076
w 183 -182 -167 0.681582
w 184 183 168 1
w 184 183 -168 0
w 184 -183 168 0
w 184 -183 -168 1
w 185 184 169 0.161928
w 185 184 -169 0.4816
w 185 -184 169 0.328365
w 185 -184 -169 0.602627
w 186 185 170 0
w 186 185 -170 1
w 186 -185 170 0
w 186 -185 -170 0
w 187 186 171 0.472597
w 187 186 -171 0.790882
w 187 -186 171 0.537519
w 187 -186 -171 0.0628066
w 188 187 172 1
w 188 187 -172 1
w 188 -187 172 1
w 188 -187 -172 0
w 189 188 173 0
w 189 188 -173 0
w 189 -188 173 0
w 189 -188 -173 1
w 190 189 174 1
w 190 189 -174 0
w 190 -189 174 1
w 190 -189 -174 0
w 191 190 175 0.265122
w 191 190 -175 0.280548
w 191 -190 175 0.261579
w 191 -190 -175 0.593487
w 192 191 176 0.725103
w 192 191 -176 0.758301
w 192 -191 176 0.738518
w 192 -191 -176 0.579833
w 193 177 0
w 193 -177 1
w 194 193 178 1
w 194 193 -178 0
w 194 -193 178 0
w 194 -193 -178 1
w 195 194 179 1
w 195 194 -179 0
w 195 -194 179 0
w 195 -194 -179 0
w 196 195 180 0
w 196 195 -180 1
w 196 -195 180 1
w 196 -195 -180 1
w 197 196 181 0.873525
w 197 196 -181 0.886152
w 197 -196 181 0.889862
w 197 -196 -181 0.653504
w 198 197 182 0
w 198 197 -182 0
w 198 -197 182 0
w 198 -197 -182 1
w 199 198 183 0
w 199 198 -183 0
w 199 -198 183 1
w 199 -198 -183 0
w 200 199 184 1
w 200 199 -184 1
w 200 -199 184 1
w 200 -199 -184 0
w 201 200 185 0
w 201 200 -185 1
w 201 -200 185 0
w 201 -200 -185 0
w 202 201 186 0
w 202 201 -186 1
w 202 -201 186 1
w 202 -201 -186 0
w 203 202 187 0.829262
w 203 202 -187 0.227442
w 203 -202 187 0.754268
w 203 -202 -187 0.719123
w 204 203 188 0.905542
w 204 203 -188 0.889533
w 204 -203 188 0.79603
w 204 -203 -188 0.650302
w 205 204 189 0.436217
w 205 204 -189 0.153364
w 205 -204 189 0.735219
w 205 -204 -189 0.656238
w 206 205 190 0
w 206 205 -190 0
w 206 -205 190 1
w 206 -205 -190 1
w 207 206 191 1
w 207 206 -191 0
w 207 -206 191 0
w 207 -206 -191 0
w 208 207 192 0.568854
w 208 207 -192 0.190874
w 208 -207 192 0.318105
w 208 -207 -192 0.626873
w 209 193 0
w 209 -193 1
w 210 209 194 0
w 210 209 -194 1
w 210 -209 194 0
w 210 -209 -194 0
w 211 210 195 0.0647914
w 211 210 -195 0.449209
w 211 -210 195 0.496333
w 211 -210 -195 0.00790867
w 212 211 196 0.649697
w 212 211 -196 0.743128
w 212 -211 196 0.541663
w 212 -211 -196 0.339259
w 213 212 197 0.470352
w 213 212 -197 0.389036
w 213 -212 197 0.630892
w 213 -212 -197 0.786728
w 214 213 198 0
w 214 213 -198 1
w 214 -213 198 1
w 214 -213 -198 0
w 215 214 199 0
w 215 214 -199 0
w 215 -214 199 1
w 215 -214 -199 0
w 216 215 200 0.901599
w 216 215 -200 0.544789
w 216 -215 200 0.963163
w 216 -215 -200 0.554778
w 217 216 201 0
w 217 216 -201 0
w 217 -216 201 1
w 217 -216 -201 0
w 218 217 202 0.53685
w 218 217 -202 0.778991
w 218 -217 202 0.431075
w 218 -217 -202 0.876109
w 219 218 203 1
w 219 218 -203 0
w 219 -218 203 0
w 219 -218 -203 1
w 220 219 204 0
w 220 219 -204 0
w 220 -219 204 1
w 220 -219 -204 1
w 221 220 205 1
w 221 220 -205 1
w 221 -220 205 0
w 221 -220 -205 1
w 222 221 206 1
w 222 221 -206 0
w 222 -221 206 0
w 222 -221 -206 1
w 223 222 207 0.573186
w 223 222 -207 0.639884
w 223 -222 207 0.935185
w 223 -222 -207 0.460339
w 224 223 208 0
w 224 223 -208 0
w 224 -223 208 1
w 224 -223 -208 0
w 225 209 0.130053
w 225 -209 0.157098
w 226 225 210 0
w 226 225 -210 1
w 226 -225 210 1
w 226 -225 -210 0
w 227 226 211 0
w 227 226 -211 1
w 227 -226 211 1
w 227 -226 -211 1
w 228 227 212 0
w 228 227 -212 1
w 228 -227 212 1
w 228 -227 -212 1
w 229 228 213 1
w 229 228 -213 0
w 229 -228 213 1
w 229 -228 -213 1
w 230 229 214 0.329588
w 230 229 -214 0.453433
w 230 -229 214 0.635736
w 230 -229 -214 0.154185
w 231 230 215 1
w 231 230 -215 1
w 231 -230 215 0
w 231 -230 -215 1
w 232 231 216 0
w 232 231 -216 1
w 232 -231 216 0
w 232 -231 -216 1
w 233 232 217 0
w 233 232 -217 0
w 233 -232 217 1
w 233 -232 -217 1
w 234 233 218 0.774917
w 234 233 -218 0.339609
w 234 -233 218 0.933233
w 234 -233 -218 0.0124578
w 235 234 219 0
w 235 234 -219 0
w 235 -234 219 1
w 235 -234 -219 1
w 236 235 220 1
w 236 235 -220 0
w 236 -235 220 1
w 236 -235 -220 1
w 237 236 221 1
w 237 236 -221 1
w 237 -236 221 0
w 237 -236 -221 1
w 238 237 222 0
w 238 237 -222 1
w 238 -237 222 1
w 238 -237 -222 0
w 239 238 223 0
w 239 238 -223 0
w 239 -238 223 1
w 239 -238 -223 1
w 240 239 224 0
w 240 239 -224 1
w 240 -239 224 1
w 240 -239 -224 1
w 241 225 0
w 241 -225 1
w 242 241 226 0
w 242 241 -226 1
w 242 -241 226 0
w 242 -241 -226 0
w 243 242 227 1
w 243 242 -227 0
w 243 -242 227 1
w 243 -242 -227 1
w 244 243 228 1
w 244 243 -228 0
w 244 -243 228 1
w 244 -243 -228 1
w 245 244 229 0
w 245 244 -229 0
w 245 -244 229 1
w 245 -244 -229 1
w 246 245 230 0
w 246 245 -230 0
w 246 -245 230 0
w 246 -245 -230 1
w 247 246 231 1
w 247 246 -231 1
w 247 -246 231 0
w 247 -246 -231 0
w 248 247 232 0
w 248 247 -232 0
w 248 -247 232 0
w 248 -247 -232 1
w 249 248 233 1
w 249 248 -233 0
w 249 -248 233 1
w 249 -248 -233 0
w 250 249 234 0.232525
w 250 249 -234 0.901005
w 250 -249 234 0.317613
w 250 -249 -234 0.848701
w 251 250 235 1
w 251 250 -235 0
w 251 -250 235 0
w 251 -250 -235 0
w 252 251 236 0
w 252 251 -236 1
w 252 -251 236 1
w 252 -251 -236 0
w 253 252 237 1
w 253 252 -237 0
w 253 -252 237 0
w 253 -252 -237 0
w 254 253 238 0.275686
w 254 253 -238 0.0578579
w 254 -253 238 0.584091
w 254 -253 -238 0.148085
w 255 254 239 0.771588
w 255 254 -239 0.2592
w 255 -254 239 0.566162
w 255 -254 -239 0.639363
w 256 255 240 0.482804
w 256 255 -240 0.871889
w 256 -255 240 0.839548
w 256 -255 -240 0.800417